c description: Random 3-CNF over 21 variables and 89 clauses
c generator: CNFgen (0.9.2)
c copyright: (C) 2012-2022 Massimo Lauria <massimo.lauria@uniroma1.it>
c url: https://massimolauria.net/cnfgen
c command line: cnfgen --output CNF_4.28/21_bit_89_246.cnf randkcnf 3 21 89
c
p cnf 21 89
11 -13 -14 0
-4 10 -13 0
2 14 -17 0
-3 4 14 0
3 -8 -15 0
-5 11 -16 0
2 9 11 0
10 -17 -19 0
1 6 9 0
2 -4 18 0
1 13 19 0
5 20 21 0
-8 11 13 0
2 -12 -21 0
-4 5 8 0
3 -5 -12 0
2 -10 11 0
5 -12 -18 0
-3 13 16 0
-1 -7 8 0
11 -16 20 0
7 11 -18 0
-7 17 -18 0
-1 6 17 0
-7 -11 -17 0
-2 13 16 0
8 11 13 0
-2 11 -15 0
1 6 -17 0
-6 18 21 0
-8 18 20 0
-3 -7 -9 0
-5 10 -20 0
-1 4 19 0
5 6 9 0
-6 20 -21 0
3 16 -19 0
-3 -5 -19 0
2 -4 -16 0
4 11 14 0
-8 -11 17 0
6 15 20 0
-4 8 -11 0
-5 8 16 0
1 2 19 0
-3 -7 -16 0
-6 13 -16 0
4 5 21 0
1 7 11 0
10 12 20 0
2 7 13 0
8 12 -14 0
3 14 -15 0
-8 11 12 0
2 -6 12 0
3 4 -13 0
5 -6 -16 0
2 6 -7 0
-5 -6 -11 0
-6 -9 -13 0
1 15 19 0
3 -14 -21 0
13 14 -16 0
-6 -10 13 0
3 8 -10 0
3 -15 21 0
7 -12 17 0
-2 -12 -19 0
-10 13 -21 0
-10 19 21 0
-1 2 21 0
-4 8 14 0
-13 -16 19 0
7 -9 -12 0
-13 -14 -21 0
-15 16 17 0
-5 14 20 0
9 13 -18 0
4 -15 -17 0
-1 2 4 0
6 -12 18 0
-1 -2 -13 0
-4 -9 14 0
-6 7 21 0
8 9 -17 0
18 -19 21 0
8 -15 18 0
-7 9 19 0
4 11 -21 0
